MW

VEHICLE
NUMBER     CAPACITY
  25         33

CUSTOMER
CUST NO.   XCOORD.    YCOORD.    DEMAND   READY TIME   DUE DATE   SERVICE TIME

    0      677.908     6150.22       0         360        1320         0
    1      720.683     6220.16       4        413         533         0
    2      721.52     6174.3       17        414         534         0
    3      718.607     6191.42       10        400         520         0
    4      639.863     6162.56       5        397         517         0
    5      724.421     6180.44       4        425         545         0
    6      638.158     6137.79       6        360         477         0
    7      685.597     6157.24       4        442         562         0
    8      657.716     6156.35       17        376         496         0
    9      724.079     6179.62       5        410         530         0
    10      721.747     6191.12       4        418         538         0
    11      716.296     6180.97       8        386         506         0
    12      723.944     6177.58       12        398         518         0
    13      724.034     6180.17       4        439         559         0
    14      718.939     6174.63       11        412         532         0
    15      720.26     6207.48       6        468         588         0
    16      703.791     6210.83       7        408         528         0
    17      717.829     6187.55       5        438         558         0
    18      689.17     6099.31       7        369         489         0
    19      704.93     6173.57       8        387         507         0
    20      708.746     6197.15       16        430         550         0
    21      532.891     6223.72       4        815         935         0
    22      498.716     6221.57       17        853         973         0
    23      573.516     6226.69       10        831         951         0
    24      588.124     6228.13       5        716         836         0
    25      537.062     6222.06       4        797         917         0
    26      602.301     6147.96       6        712         832         0
    27      471.662     6105.06       4        885         1005         0
    28      563.954     6257.95       17        750         870         0
    29      570.158     6224.09       5        763         883         0
    30      445.42     6212.54       4        979         1099         0
    31      532.974     6172.68       8        788         908         0
    32      575.704     6233       12        752         872         0
    33      545.234     6089.61       4        903         1023         0
    34      570.063     6255.83       11        789         909         0
    35      570.782     6224.79       6        790         910         0
    36      574.602     6226.39       7        775         895         0
    37      571.521     6221.26       5        781         901         0
    38      559.352     6219.73       7        908         1028         0
    39      565.931     6236.97       8        789         909         0
    40      513.415     6173.76       16        772         892         0

0	1 2 3 4 5 6 7 8 9 10 11 12 13 14 15 16 17 18 19 20 21 22 23 24 25 26 27 28 29 30 31 32 33 34 35 36 37 38 39 40 
1	2 3 4 5 6 7 8 9 10 11 12 13 14 15 16 17 18 19 20 0 
2	1 3 4 5 6 7 8 9 10 11 12 13 14 15 16 17 18 19 20 0 
3	1 2 4 5 6 7 8 9 10 11 12 13 14 15 16 17 18 19 20 0 
4	1 2 3 5 6 7 8 9 10 11 12 13 14 15 16 17 18 19 20 0 
5	1 2 3 4 6 7 8 9 10 11 12 13 14 15 16 17 18 19 20 0 
6	1 2 3 4 5 7 8 9 10 11 12 13 14 15 16 17 18 19 20 0 
7	1 2 3 4 5 6 8 9 10 11 12 13 14 15 16 17 18 19 20 0 
8	1 2 3 4 5 6 7 9 10 11 12 13 14 15 16 17 18 19 20 0 
9	1 2 3 4 5 6 7 8 10 11 12 13 14 15 16 17 18 19 20 0 
10	1 2 3 4 5 6 7 8 9 11 12 13 14 15 16 17 18 19 20 0 
11	1 2 3 4 5 6 7 8 9 10 12 13 14 15 16 17 18 19 20 0 
12	1 2 3 4 5 6 7 8 9 10 11 13 14 15 16 17 18 19 20 0 
13	1 2 3 4 5 6 7 8 9 10 11 12 14 15 16 17 18 19 20 0 
14	1 2 3 4 5 6 7 8 9 10 11 12 13 15 16 17 18 19 20 0 
15	1 2 3 4 5 6 7 8 9 10 11 12 13 14 16 17 18 19 20 0 
16	1 2 3 4 5 6 7 8 9 10 11 12 13 14 15 17 18 19 20 0 
17	1 2 3 4 5 6 7 8 9 10 11 12 13 14 15 16 18 19 20 0 
18	1 2 3 4 5 6 7 8 9 10 11 12 13 14 15 16 17 19 20 0 
19	1 2 3 4 5 6 7 8 9 10 11 12 13 14 15 16 17 18 20 0 
20	1 2 3 4 5 6 7 8 9 10 11 12 13 14 15 16 17 18 19 0 
21	22 23 24 25 26 27 28 29 30 31 32 33 34 35 36 37 38 39 40 0 
22	21 23 24 25 26 27 28 29 30 31 32 33 34 35 36 37 38 39 40 0 
23	21 22 24 25 26 27 28 29 30 31 32 33 34 35 36 37 38 39 40 0 
24	21 22 23 25 26 27 28 29 30 31 32 33 34 35 36 37 38 39 40 0 
25	21 22 23 24 26 27 28 29 30 31 32 33 34 35 36 37 38 39 40 0 
26	21 22 23 24 25 27 28 29 30 31 32 33 34 35 36 37 38 39 40 0 
27	21 22 23 24 25 26 28 29 30 31 32 33 34 35 36 37 38 39 40 0 
28	21 22 23 24 25 26 27 29 30 31 32 33 34 35 36 37 38 39 40 0 
29	21 22 23 24 25 26 27 28 30 31 32 33 34 35 36 37 38 39 40 0 
30	21 22 23 24 25 26 27 28 29 31 32 33 34 35 36 37 38 39 40 0 
31	21 22 23 24 25 26 27 28 29 30 32 33 34 35 36 37 38 39 40 0 
32	21 22 23 24 25 26 27 28 29 30 31 33 34 35 36 37 38 39 40 0 
33	21 22 23 24 25 26 27 28 29 30 31 32 34 35 36 37 38 39 40 0 
34	21 22 23 24 25 26 27 28 29 30 31 32 33 35 36 37 38 39 40 0 
35	21 22 23 24 25 26 27 28 29 30 31 32 33 34 36 37 38 39 40 0 
36	21 22 23 24 25 26 27 28 29 30 31 32 33 34 35 37 38 39 40 0 
37	21 22 23 24 25 26 27 28 29 30 31 32 33 34 35 36 38 39 40 0 
38	21 22 23 24 25 26 27 28 29 30 31 32 33 34 35 36 37 39 40 0 
39	21 22 23 24 25 26 27 28 29 30 31 32 33 34 35 36 37 38 40 0 
40	21 22 23 24 25 26 27 28 29 30 31 32 33 34 35 36 37 38 39 0 

